21 28 4 10 0 34 7 6 25 1 11 2 12 5 14 29 3 17 27 19 20 8 22 23 31 16 26 18 13 15 30 24 32 33 9 35 36 37 38 39
21 28 4 10 0 34 7 6 25 1 11 2 12 5 14 29 3 17 27 19 20 8 22 23 31 16 26 18 13 15 30 24 32 33 9 35 36 37 38 39
21 28 4 10 0 34 7 6 25 1 11 2 12 5 14 29 3 17 27 19 20 8 22 23 31 16 26 18 13 15 30 24 32 33 9 35 36 37 38 39
21 28 4 10 0 34 7 6 25 1 11 2 12 5 14 29 3 17 27 19 20 8 22 23 31 16 26 18 13 15 30 24 32 33 9 35 36 37 38 39
21 28 4 10 0 34 7 6 25 1 11 2 12 5 14 29 3 17 27 19 20 8 22 23 31 16 26 18 13 15 30 24 32 33 9 35 36 37 38 39
